c User generated cnf file
p cnf 15 17
5 5 -7 0 
8 13 -12 0 
7 -6 5 0 
12 -6 7 0 
10 -6 15 0 
5 -2 15 0 
11 13 -3 0 
15 12 -10 0 
8 9 -8 0 
11 -3 6 0 
5 10 -13 0 
2 2 -3 0 
6 7 -15 0 
10 -6 13 0 
1 6 -1 0 
4 -10 3 0 
4 5 -7 0 
